c nIsolatedPIs 0
c maxPI 32
p cnf 147 346
c gate 33 -2 18 0
-2 -33 0
18 -33 0
2 -18 33 0
c gate 34 2 -18 0
2 -34 0
-18 -34 0
-2 18 34 0
c gate 35 -1 17 0
-1 -35 0
17 -35 0
1 -17 35 0
c gate 36 -34 35 0
-34 -36 0
35 -36 0
34 -35 36 0
c gate 37 -33 -36 0
-33 -37 0
-36 -37 0
33 36 37 0
c gate 38 3 37 0
3 -38 0
37 -38 0
-3 -37 38 0
c gate 39 19 -38 0
19 -39 0
-38 -39 0
-19 38 39 0
c gate 40 -3 -37 0
-3 -40 0
-37 -40 0
3 37 40 0
c gate 41 -4 20 0
-4 -41 0
20 -41 0
4 -20 41 0
c gate 42 -40 -41 0
-40 -42 0
-41 -42 0
40 41 42 0
c gate 43 -39 42 0
-39 -43 0
42 -43 0
39 -42 43 0
c gate 44 5 -21 0
5 -44 0
-21 -44 0
-5 21 44 0
c gate 45 4 -20 0
4 -45 0
-20 -45 0
-4 20 45 0
c gate 46 -44 -45 0
-44 -46 0
-45 -46 0
44 45 46 0
c gate 47 -43 46 0
-43 -47 0
46 -47 0
43 -46 47 0
c gate 48 -6 22 0
-6 -48 0
22 -48 0
6 -22 48 0
c gate 49 -5 21 0
-5 -49 0
21 -49 0
5 -21 49 0
c gate 50 -48 -49 0
-48 -50 0
-49 -50 0
48 49 50 0
c gate 51 -47 50 0
-47 -51 0
50 -51 0
47 -50 51 0
c gate 52 6 -22 0
6 -52 0
-22 -52 0
-6 22 52 0
c gate 53 7 -23 0
7 -53 0
-23 -53 0
-7 23 53 0
c gate 54 -52 -53 0
-52 -54 0
-53 -54 0
52 53 54 0
c gate 55 -51 54 0
-51 -55 0
54 -55 0
51 -54 55 0
c gate 56 -7 23 0
-7 -56 0
23 -56 0
7 -23 56 0
c gate 57 -8 -24 0
-8 -57 0
-24 -57 0
8 24 57 0
c gate 58 8 24 0
8 -58 0
24 -58 0
-8 -24 58 0
c gate 59 -57 -58 0
-57 -59 0
-58 -59 0
57 58 59 0
c gate 60 -56 -59 0
-56 -60 0
-59 -60 0
56 59 60 0
c gate 61 -55 60 0
-55 -61 0
60 -61 0
55 -60 61 0
c gate 62 13 -29 0
13 -62 0
-29 -62 0
-13 29 62 0
c gate 63 -13 29 0
-13 -63 0
29 -63 0
13 -29 63 0
c gate 64 -62 -63 0
-62 -64 0
-63 -64 0
62 63 64 0
c gate 65 11 27 0
11 -65 0
27 -65 0
-11 -27 65 0
c gate 66 10 26 0
10 -66 0
26 -66 0
-10 -26 66 0
c gate 67 -7 -23 0
-7 -67 0
-23 -67 0
7 23 67 0
c gate 68 -57 -67 0
-57 -68 0
-67 -68 0
57 67 68 0
c gate 69 9 25 0
9 -69 0
25 -69 0
-9 -25 69 0
c gate 70 -58 -69 0
-58 -70 0
-69 -70 0
58 69 70 0
c gate 71 -68 70 0
-68 -71 0
70 -71 0
68 -70 71 0
c gate 72 -10 -26 0
-10 -72 0
-26 -72 0
10 26 72 0
c gate 73 -66 -72 0
-66 -73 0
-72 -73 0
66 72 73 0
c gate 74 -9 -25 0
-9 -74 0
-25 -74 0
9 25 74 0
c gate 75 73 -74 0
73 -75 0
-74 -75 0
-73 74 75 0
c gate 76 -71 75 0
-71 -76 0
75 -76 0
71 -75 76 0
c gate 77 -66 -76 0
-66 -77 0
-76 -77 0
66 76 77 0
c gate 78 -2 -18 0
-2 -78 0
-18 -78 0
2 18 78 0
c gate 79 1 17 0
1 -79 0
17 -79 0
-1 -17 79 0
c gate 80 -78 79 0
-78 -80 0
79 -80 0
78 -79 80 0
c gate 81 3 19 0
3 -81 0
19 -81 0
-3 -19 81 0
c gate 82 2 18 0
2 -82 0
18 -82 0
-2 -18 82 0
c gate 83 -81 -82 0
-81 -83 0
-82 -83 0
81 82 83 0
c gate 84 -80 83 0
-80 -84 0
83 -84 0
80 -83 84 0
c gate 85 -4 -20 0
-4 -85 0
-20 -85 0
4 20 85 0
c gate 86 -3 -19 0
-3 -86 0
-19 -86 0
3 19 86 0
c gate 87 -85 -86 0
-85 -87 0
-86 -87 0
85 86 87 0
c gate 88 -84 87 0
-84 -88 0
87 -88 0
84 -87 88 0
c gate 89 5 21 0
5 -89 0
21 -89 0
-5 -21 89 0
c gate 90 4 20 0
4 -90 0
20 -90 0
-4 -20 90 0
c gate 91 -89 -90 0
-89 -91 0
-90 -91 0
89 90 91 0
c gate 92 -88 91 0
-88 -92 0
91 -92 0
88 -91 92 0
c gate 93 -6 -22 0
-6 -93 0
-22 -93 0
6 22 93 0
c gate 94 -5 -21 0
-5 -94 0
-21 -94 0
5 21 94 0
c gate 95 -93 -94 0
-93 -95 0
-94 -95 0
93 94 95 0
c gate 96 -92 95 0
-92 -96 0
95 -96 0
92 -95 96 0
c gate 97 7 23 0
7 -97 0
23 -97 0
-7 -23 97 0
c gate 98 6 22 0
6 -98 0
22 -98 0
-6 -22 98 0
c gate 99 -97 -98 0
-97 -99 0
-98 -99 0
97 98 99 0
c gate 100 -96 99 0
-96 -100 0
99 -100 0
96 -99 100 0
c gate 101 70 76 0
70 -101 0
76 -101 0
-70 -76 101 0
c gate 102 100 101 0
100 -102 0
101 -102 0
-100 -101 102 0
c gate 103 -77 -102 0
-77 -103 0
-102 -103 0
77 102 103 0
c gate 104 -65 -103 0
-65 -104 0
-103 -104 0
65 103 104 0
c gate 105 -12 -28 0
-12 -105 0
-28 -105 0
12 28 105 0
c gate 106 12 28 0
12 -106 0
28 -106 0
-12 -28 106 0
c gate 107 -105 -106 0
-105 -107 0
-106 -107 0
105 106 107 0
c gate 108 -11 -27 0
-11 -108 0
-27 -108 0
11 27 108 0
c gate 109 107 -108 0
107 -109 0
-108 -109 0
-107 108 109 0
c gate 110 -104 109 0
-104 -110 0
109 -110 0
104 -109 110 0
c gate 111 -64 110 0
-64 -111 0
110 -111 0
64 -110 111 0
c gate 112 64 110 0
64 -112 0
110 -112 0
-64 -110 112 0
c gate 113 -65 -108 0
-65 -113 0
-108 -113 0
65 108 113 0
c gate 114 102 113 0
102 -114 0
113 -114 0
-102 -113 114 0
c gate 115 107 114 0
107 -115 0
114 -115 0
-107 -114 115 0
c gate 116 -112 -115 0
-112 -116 0
-115 -116 0
112 115 116 0
c gate 117 -67 100 0
-67 -117 0
100 -117 0
67 -100 117 0
c gate 118 14 -30 0
14 -118 0
-30 -118 0
-14 30 118 0
c gate 119 -14 30 0
-14 -119 0
30 -119 0
14 -30 119 0
c gate 120 -118 -119 0
-118 -120 0
-119 -120 0
118 119 120 0
c gate 121 15 -31 0
15 -121 0
-31 -121 0
-15 31 121 0
c gate 122 -15 31 0
-15 -122 0
31 -122 0
15 -31 122 0
c gate 123 -121 -122 0
-121 -123 0
-122 -123 0
121 122 123 0
c gate 124 120 123 0
120 -124 0
123 -124 0
-120 -123 124 0
c gate 125 -69 -74 0
-69 -125 0
-74 -125 0
69 74 125 0
c gate 126 16 -32 0
16 -126 0
-32 -126 0
-16 32 126 0
c gate 127 -16 32 0
-16 -127 0
32 -127 0
16 -32 127 0
c gate 128 -126 -127 0
-126 -128 0
-127 -128 0
126 127 128 0
c gate 129 -125 128 0
-125 -129 0
128 -129 0
125 -128 129 0
c gate 130 124 129 0
124 -130 0
129 -130 0
-124 -129 130 0
c gate 131 64 -107 0
64 -131 0
-107 -131 0
-64 107 131 0
c gate 132 -73 -113 0
-73 -132 0
-113 -132 0
73 113 132 0
c gate 133 131 132 0
131 -133 0
132 -133 0
-131 -132 133 0
c gate 134 130 133 0
130 -134 0
133 -134 0
-130 -133 134 0
c gate 135 61 134 0
61 -135 0
134 -135 0
-61 -134 135 0
c gate 136 -120 -123 0
-120 -136 0
-123 -136 0
120 123 136 0
c gate 137 -128 136 0
-128 -137 0
136 -137 0
128 -136 137 0
c gate 138 111 -137 0
111 -138 0
-137 -138 0
-111 137 138 0
c gate 139 -61 116 0
-61 -139 0
116 -139 0
61 -116 139 0
c gate 140 -138 139 0
-138 -140 0
139 -140 0
138 -139 140 0
c gate 141 -135 -140 0
-135 -141 0
-140 -141 0
135 140 141 0
c gate 142 117 141 0
117 -142 0
141 -142 0
-117 -141 142 0
c gate 143 116 142 0
116 -143 0
142 -143 0
-116 -142 143 0
c gate 144 -111 -143 0
-111 -144 0
-143 -144 0
111 143 144 0
c gate 145 -138 141 0
-138 -145 0
141 -145 0
138 -141 145 0
c gate 146 -144 145 0
-144 -146 0
145 -146 0
144 -145 146 0
c gate 147 61 -146 0
61 -147 0
-146 -147 0
-61 146 147 0
c PO
147 0
